! wB97X-D3 def2-SVP TightSCF Opt CPCM(methanol)

* xyz 0 1
O -1.267915 -2.949436 -0.785030
C -0.926010 -1.803585 -0.500313
C 0.547318 -1.420601 -0.482688
S 0.980441 -0.494091 1.028483
C 2.735104 -0.327723 0.772774
C 3.619552 -0.934320 1.665450
C 4.999220 -0.807570 1.481901
C 5.511965 -0.068517 0.413498
O 6.876934 -0.025684 0.350944
C 7.449680 0.716493 -0.718194
C 4.628907 0.549423 -0.471741
C 3.245963 0.422607 -0.289944
N -1.774981 -0.744201 -0.261017
C -3.189961 -0.717029 -0.258465
C -3.980827 -1.824753 -0.579031
C -5.370209 -1.723815 -0.553893
C -5.972734 -0.517480 -0.209879
C -5.186289 0.600079 0.110643
C -5.769043 1.825657 0.460251
C -4.962903 2.912724 0.772845
C -3.593966 2.739388 0.723614
N -2.993315 1.576299 0.388916
C -3.777248 0.511881 0.087739
H 0.756392 -0.822837 -1.375380
H 1.144581 -2.337443 -0.521143
H 3.247758 -1.511842 2.508519
H 5.680253 -1.287885 2.180531
H 8.538025 0.649616 -0.626249
H 7.170678 0.291270 -1.687936
H 7.174656 1.774573 -0.655907
H 4.980293 1.141344 -1.310220
H 2.577005 0.926888 -0.982899
H -1.359054 0.140059 0.033881
H -3.540945 -2.778988 -0.850806
H -5.979790 -2.589404 -0.802016
H -7.058486 -0.454600 -0.193123
H -6.849976 1.937399 0.491872
H -5.392515 3.869128 1.048165
H -2.918557 3.556974 0.960106
*